\ LP format - for model browsing. Use MPS format to capture full model detail.
Maximize
obj:   x[1] + x[12] + x[37] + x[42] + x[53] + x[56] + x[67] + x[87] + x[95]
   + x[106] + x[108] + x[109] + x[118] + x[2] + x[3] + x[13] + x[15]
   + x[20] + x[55] + x[66] + x[75] + x[90] + x[120] + x[16] + x[22] + x[31]
   + x[34] + x[35] + x[57] + x[65] + x[80] + x[83] + x[89] + x[94] + x[115]
   + x[117] + x[4] + x[25] + x[48] + x[68] + x[69] + x[76] + x[77] + x[85]
   + x[93] + x[5] + x[23] + x[27] + x[28] + x[33] + x[38] + x[74] + x[84]
   + x[97] + x[6] + x[14] + x[70] + x[78] + x[104] + x[105] + x[114]
   + x[125] + x[7] + x[30] + x[58] + x[81] + x[86] + x[8] + x[40] + x[44]
   + x[110] + x[113] + x[121] + x[9] + x[26] + x[32] + x[46] + x[64]
   + x[88] + x[116] + x[124] + x[10] + x[29] + x[54] + x[71] + x[11]
   + x[51] + x[59] + x[112] + x[43] + x[92] + x[102] + x[63] + x[73]
   + x[79] + x[96] + x[119] + x[21] + x[72] + x[101] + x[103] + x[17]
   + x[50] + x[60] + x[111] + x[18] + x[52] + x[62] + x[19] + x[61] + x[91]
   + x[100] + x[107] + x[24] + x[41] + x[98] + x[82] + x[36] + x[122]
   + x[99] + x[39] + x[49] + x[123] + x[45] + x[47]
Subject To
 nod1: 12 x[1] + x[12] + x[37] + x[42] + x[53] + x[56] + x[67] + x[87]
   + x[95] + x[106] + x[108] + x[109] + x[118] <= 12
 nod12: x[1] + 16 x[12] + x[15] + x[89] + x[68] + x[76] + x[33] + x[84]
   + x[78] + x[104] + x[114] + x[8] + x[9] + x[88] + x[43] + x[92] + x[102]
   <= 16
 nod37: x[1] + 13 x[37] + x[95] + x[75] + x[22] + x[48] + x[40] + x[110]
   + x[26] + x[88] + x[43] + x[103] + x[41] + x[98] <= 13
 nod42: x[1] + 18 x[42] + x[3] + x[34] + x[83] + x[115] + x[25] + x[14]
   + x[81] + x[113] + x[46] + x[51] + x[63] + x[17] + x[61] + x[107]
   + x[82] + x[122] + x[123] <= 18
 nod53: x[1] + 13 x[53] + x[2] + x[55] + x[16] + x[57] + x[76] + x[84]
   + x[81] + x[44] + x[121] + x[29] + x[91] + x[122] <= 13
 nod56: x[1] + 14 x[56] + x[106] + x[2] + x[3] + x[55] + x[66] + x[93]
   + x[84] + x[44] + x[113] + x[26] + x[17] + x[36] + x[39] <= 14
 nod67: x[1] + 8 x[67] + x[87] + x[15] + x[94] + x[115] + x[32] + x[124]
   + x[107] <= 8
 nod87: x[1] + x[67] + 14 x[87] + x[55] + x[31] + x[93] + x[14] + x[81]
   + x[88] + x[116] + x[124] + x[92] + x[96] + x[103] + x[49] <= 14
 nod95: x[1] + x[37] + 18 x[95] + x[55] + x[66] + x[48] + x[5] + x[23]
   + x[125] + x[26] + x[10] + x[51] + x[63] + x[73] + x[119] + x[61]
   + x[98] + x[122] + x[99] <= 18
 nod106: x[1] + x[56] + 13 x[106] + x[22] + x[83] + x[94] + x[68] + x[14]
   + x[121] + x[29] + x[103] + x[19] + x[122] + x[39] <= 13
 nod108: x[1] + 21 x[108] + x[3] + x[13] + x[20] + x[66] + x[75] + x[94]
   + x[115] + x[5] + x[28] + x[33] + x[38] + x[14] + x[7] + x[30] + x[58]
   + x[9] + x[32] + x[73] + x[79] + x[41] <= 21
 nod109: x[1] + 12 x[109] + x[118] + x[15] + x[48] + x[85] + x[93] + x[44]
   + x[96] + x[103] + x[36] + x[99] + x[49] <= 12
 nod118: x[1] + x[109] + 12 x[118] + x[75] + x[34] + x[57] + x[117] + x[97]
   + x[116] + x[10] + x[79] + x[100] + x[107] <= 12
 nod2: x[53] + x[56] + 11 x[2] + x[3] + x[13] + x[15] + x[20] + x[55]
   + x[66] + x[75] + x[90] + x[120] <= 11
 nod3: x[42] + x[56] + x[108] + x[2] + 17 x[3] + x[16] + x[22] + x[31]
   + x[34] + x[35] + x[57] + x[65] + x[80] + x[83] + x[89] + x[94] + x[115]
   + x[117] <= 17
 nod13: x[108] + x[2] + 12 x[13] + x[65] + x[48] + x[84] + x[14] + x[78]
   + x[121] + x[88] + x[124] + x[71] + x[102] <= 12
 nod15: x[12] + x[67] + x[109] + x[2] + 18 x[15] + x[75] + x[57] + x[94]
   + x[77] + x[38] + x[6] + x[32] + x[124] + x[71] + x[11] + x[51] + x[79]
   + x[96] + x[119] <= 18
 nod20: x[108] + x[2] + 13 x[20] + x[35] + x[94] + x[5] + x[74] + x[70]
   + x[113] + x[10] + x[19] + x[91] + x[100] + x[107] <= 13
 nod55: x[53] + x[56] + x[87] + x[95] + x[2] + 15 x[55] + x[120] + x[83]
   + x[48] + x[74] + x[81] + x[116] + x[63] + x[119] + x[100] + x[41]
   <= 15
 nod66: x[56] + x[95] + x[108] + x[2] + 13 x[66] + x[90] + x[115] + x[74]
   + x[97] + x[92] + x[21] + x[61] + x[100] + x[123] <= 13
 nod75: x[37] + x[108] + x[118] + x[2] + x[15] + 20 x[75] + x[90] + x[34]
   + x[76] + x[97] + x[81] + x[40] + x[113] + x[32] + x[71] + x[59]
   + x[112] + x[79] + x[72] + x[103] + x[36] <= 20
 nod90: x[2] + x[66] + x[75] + 19 x[90] + x[35] + x[77] + x[93] + x[84]
   + x[97] + x[78] + x[105] + x[58] + x[44] + x[110] + x[116] + x[63]
   + x[73] + x[91] + x[36] + x[122] <= 19
 nod120: x[2] + x[55] + 14 x[120] + x[35] + x[68] + x[77] + x[86] + x[32]
   + x[88] + x[51] + x[92] + x[102] + x[61] + x[91] + x[24] <= 14
 nod16: x[53] + x[3] + 18 x[16] + x[80] + x[89] + x[25] + x[68] + x[76]
   + x[23] + x[74] + x[40] + x[44] + x[64] + x[29] + x[112] + x[21] + x[72]
   + x[101] + x[103] <= 18
 nod22: x[37] + x[106] + x[3] + 10 x[22] + x[31] + x[4] + x[5] + x[23]
   + x[121] + x[61] + x[91] <= 10
 nod31: x[87] + x[3] + x[22] + 12 x[31] + x[89] + x[94] + x[4] + x[76]
   + x[27] + x[28] + x[6] + x[73] + x[111] <= 12
 nod34: x[42] + x[118] + x[3] + x[75] + 10 x[34] + x[4] + x[58] + x[32]
   + x[64] + x[10] + x[62] <= 10
 nod35: x[3] + x[20] + x[90] + x[120] + 12 x[35] + x[94] + x[115] + x[25]
   + x[76] + x[14] + x[81] + x[79] + x[61] <= 12
 nod57: x[53] + x[118] + x[3] + x[15] + 12 x[57] + x[48] + x[27] + x[74]
   + x[44] + x[21] + x[103] + x[18] + x[49] <= 12
 nod65: x[3] + x[13] + 10 x[65] + x[6] + x[81] + x[121] + x[59] + x[43]
   + x[72] + x[111] + x[18] <= 10
 nod80: x[3] + x[16] + 7 x[80] + x[76] + x[58] + x[64] + x[92] + x[61]
   <= 7
 nod83: x[42] + x[106] + x[3] + x[55] + 22 x[83] + x[4] + x[69] + x[76]
   + x[6] + x[125] + x[86] + x[113] + x[26] + x[46] + x[10] + x[103]
   + x[17] + x[19] + x[61] + x[91] + x[100] + x[24] + x[47] <= 22
 nod89: x[12] + x[3] + x[16] + x[31] + 15 x[89] + x[68] + x[76] + x[85]
   + x[33] + x[14] + x[121] + x[51] + x[112] + x[96] + x[50] + x[82] <= 15
 nod94: x[67] + x[106] + x[108] + x[3] + x[15] + x[20] + x[31] + x[35]
   + 18 x[94] + x[115] + x[69] + x[33] + x[97] + x[70] + x[54] + x[96]
   + x[82] + x[123] + x[45] <= 18
 nod115: x[42] + x[67] + x[108] + x[3] + x[66] + x[35] + x[94] + 12 x[115]
   + x[33] + x[64] + x[63] + x[96] + x[119] <= 12
 nod117: x[118] + x[3] + 12 x[117] + x[76] + x[97] + x[105] + x[86]
   + x[113] + x[32] + x[73] + x[119] + x[62] + x[39] <= 12
 nod4: x[22] + x[31] + x[34] + x[83] + 12 x[4] + x[25] + x[48] + x[68]
   + x[69] + x[76] + x[77] + x[85] + x[93] <= 12
 nod25: x[42] + x[16] + x[35] + x[4] + 11 x[25] + x[23] + x[28] + x[38]
   + x[78] + x[64] + x[63] + x[21] <= 11
 nod48: x[37] + x[95] + x[109] + x[13] + x[55] + x[57] + x[4] + 11 x[48]
   + x[28] + x[51] + x[103] + x[52] <= 11
 nod68: x[12] + x[106] + x[120] + x[16] + x[89] + x[4] + 16 x[68] + x[78]
   + x[105] + x[30] + x[81] + x[113] + x[32] + x[88] + x[73] + x[17]
   + x[62] <= 16
 nod69: x[83] + x[94] + x[4] + 12 x[69] + x[85] + x[23] + x[121] + x[9]
   + x[116] + x[51] + x[103] + x[100] + x[49] <= 12
 nod76: x[12] + x[53] + x[75] + x[16] + x[31] + x[35] + x[80] + x[83]
   + x[89] + x[117] + x[4] + 20 x[76] + x[28] + x[38] + x[110] + x[29]
   + x[119] + x[72] + x[50] + x[39] + x[45] <= 20
 nod77: x[15] + x[90] + x[120] + x[4] + 10 x[77] + x[33] + x[105] + x[63]
   + x[100] + x[107] + x[39] <= 10
 nod85: x[109] + x[89] + x[4] + x[69] + 11 x[85] + x[28] + x[40] + x[64]
   + x[124] + x[112] + x[21] + x[36] <= 11
 nod93: x[56] + x[87] + x[109] + x[90] + x[4] + 14 x[93] + x[27] + x[14]
   + x[64] + x[116] + x[43] + x[73] + x[50] + x[62] + x[45] <= 14
 nod5: x[95] + x[108] + x[20] + x[22] + 12 x[5] + x[23] + x[27] + x[28]
   + x[33] + x[38] + x[74] + x[84] + x[97] <= 12
 nod23: x[95] + x[16] + x[22] + x[25] + x[69] + x[5] + 13 x[23] + x[70]
   + x[32] + x[102] + x[50] + x[100] + x[107] + x[41] <= 13
 nod27: x[31] + x[57] + x[93] + x[5] + 13 x[27] + x[74] + x[125] + x[44]
   + x[26] + x[116] + x[21] + x[50] + x[18] + x[62] <= 13
 nod28: x[108] + x[31] + x[25] + x[48] + x[76] + x[85] + x[5] + 14 x[28]
   + x[38] + x[14] + x[64] + x[112] + x[79] + x[96] + x[72] <= 14
 nod33: x[12] + x[108] + x[89] + x[94] + x[115] + x[77] + x[5] + 16 x[33]
   + x[86] + x[116] + x[124] + x[10] + x[71] + x[17] + x[91] + x[107]
   + x[36] <= 16
 nod38: x[108] + x[15] + x[25] + x[76] + x[5] + x[28] + 15 x[38] + x[104]
   + x[105] + x[113] + x[46] + x[51] + x[112] + x[21] + x[98] + x[99]
   <= 15
 nod74: x[20] + x[55] + x[66] + x[16] + x[57] + x[5] + x[27] + 11 x[74]
   + x[40] + x[9] + x[51] + x[63] <= 11
 nod84: x[12] + x[53] + x[56] + x[13] + x[90] + x[5] + 13 x[84] + x[70]
   + x[81] + x[64] + x[107] + x[122] + x[39] + x[47] <= 13
 nod97: x[118] + x[66] + x[75] + x[90] + x[94] + x[117] + x[5] + 18 x[97]
   + x[44] + x[26] + x[116] + x[11] + x[92] + x[17] + x[52] + x[62] + x[24]
   + x[82] + x[36] <= 18
 nod6: x[15] + x[31] + x[65] + x[83] + 11 x[6] + x[14] + x[70] + x[78]
   + x[104] + x[105] + x[114] + x[125] <= 11
 nod14: x[42] + x[87] + x[106] + x[108] + x[13] + x[35] + x[89] + x[93]
   + x[28] + x[6] + 15 x[14] + x[7] + x[64] + x[71] + x[63] + x[73] <= 15
 nod70: x[20] + x[94] + x[23] + x[84] + x[6] + 9 x[70] + x[112] + x[43]
   + x[107] + x[41] <= 9
 nod78: x[12] + x[13] + x[90] + x[25] + x[68] + x[6] + 15 x[78] + x[105]
   + x[7] + x[121] + x[29] + x[112] + x[119] + x[21] + x[24] + x[36] <= 15
 nod104: x[12] + x[38] + x[6] + 6 x[104] + x[105] + x[101] + x[18] <= 6
 nod105: x[90] + x[117] + x[68] + x[77] + x[38] + x[6] + x[78] + x[104]
   + 15 x[105] + x[58] + x[46] + x[112] + x[103] + x[36] + x[122] + x[49]
   <= 15
 nod114: x[12] + x[6] + 5 x[114] + x[81] + x[64] + x[24] <= 5
 nod125: x[95] + x[83] + x[27] + x[6] + 8 x[125] + x[51] + x[43] + x[100]
   + x[41] <= 8
 nod7: x[108] + x[14] + x[78] + 7 x[7] + x[30] + x[58] + x[81] + x[86]
   <= 7
 nod30: x[108] + x[68] + x[7] + 11 x[30] + x[44] + x[113] + x[54] + x[71]
   + x[21] + x[17] + x[50] + x[18] <= 11
 nod58: x[108] + x[90] + x[34] + x[80] + x[105] + x[7] + 12 x[58] + x[8]
   + x[124] + x[50] + x[107] + x[98] + x[122] <= 12
 nod81: x[42] + x[53] + x[87] + x[55] + x[75] + x[35] + x[65] + x[68]
   + x[84] + x[114] + x[7] + 16 x[81] + x[124] + x[51] + x[112] + x[36]
   + x[45] <= 16
 nod86: x[120] + x[83] + x[117] + x[33] + x[7] + 11 x[86] + x[64] + x[88]
   + x[11] + x[73] + x[21] + x[123] <= 11
 nod8: x[12] + x[58] + 7 x[8] + x[40] + x[44] + x[110] + x[113] + x[121]
   <= 7
 nod40: x[37] + x[75] + x[16] + x[85] + x[74] + x[8] + 8 x[40] + x[112]
   + x[73] <= 8
 nod44: x[53] + x[56] + x[109] + x[90] + x[16] + x[57] + x[27] + x[97]
   + x[30] + x[8] + 12 x[44] + x[124] + x[119] <= 12
 nod110: x[37] + x[90] + x[76] + x[8] + 7 x[110] + x[64] + x[102] + x[21]
   <= 7
 nod113: x[42] + x[56] + x[20] + x[75] + x[83] + x[117] + x[68] + x[38]
   + x[30] + x[8] + 18 x[113] + x[26] + x[64] + x[51] + x[43] + x[18]
   + x[19] + x[91] + x[123] <= 18
 nod121: x[53] + x[106] + x[13] + x[22] + x[65] + x[89] + x[69] + x[78]
   + x[8] + 13 x[121] + x[46] + x[88] + x[10] + x[43] <= 13
 nod9: x[12] + x[108] + x[69] + x[74] + 11 x[9] + x[26] + x[32] + x[46]
   + x[64] + x[88] + x[116] + x[124] <= 11
 nod26: x[37] + x[56] + x[95] + x[83] + x[27] + x[97] + x[113] + x[9]
   + 13 x[26] + x[11] + x[79] + x[72] + x[52] + x[98] <= 13
 nod32: x[67] + x[108] + x[15] + x[75] + x[120] + x[34] + x[117] + x[68]
   + x[23] + x[9] + 14 x[32] + x[51] + x[63] + x[62] + x[82] <= 14
 nod46: x[42] + x[83] + x[38] + x[105] + x[121] + x[9] + 11 x[46] + x[29]
   + x[50] + x[52] + x[99] + x[47] <= 11
 nod64: x[16] + x[34] + x[80] + x[115] + x[25] + x[85] + x[93] + x[28]
   + x[84] + x[14] + x[114] + x[86] + x[110] + x[113] + x[9] + 18 x[64]
   + x[88] + x[17] + x[100] <= 18
 nod88: x[12] + x[37] + x[87] + x[13] + x[120] + x[68] + x[86] + x[121]
   + x[9] + x[64] + 18 x[88] + x[116] + x[71] + x[92] + x[63] + x[17]
   + x[50] + x[62] + x[36] <= 18
 nod116: x[87] + x[118] + x[55] + x[90] + x[69] + x[93] + x[27] + x[33]
   + x[97] + x[9] + x[88] + 16 x[116] + x[17] + x[52] + x[61] + x[41]
   + x[123] <= 16
 nod124: x[67] + x[87] + x[13] + x[15] + x[85] + x[33] + x[58] + x[81]
   + x[44] + x[9] + 14 x[124] + x[11] + x[19] + x[107] + x[41] <= 14
 nod10: x[95] + x[118] + x[20] + x[34] + x[83] + x[33] + x[121] + 10 x[10]
   + x[29] + x[54] + x[71] <= 10
 nod29: x[53] + x[106] + x[16] + x[76] + x[78] + x[46] + x[10] + 8 x[29]
   + x[73] <= 8
 nod54: x[94] + x[30] + x[10] + 5 x[54] + x[119] + x[91] <= 5
 nod71: x[13] + x[15] + x[75] + x[33] + x[14] + x[30] + x[88] + x[10]
   + 14 x[71] + x[43] + x[21] + x[103] + x[52] + x[100] + x[36] <= 14
 nod11: x[15] + x[97] + x[86] + x[26] + x[124] + 8 x[11] + x[51] + x[59]
   + x[112] <= 8
 nod51: x[42] + x[95] + x[15] + x[120] + x[89] + x[48] + x[69] + x[38]
   + x[74] + x[125] + x[81] + x[113] + x[32] + x[11] + 19 x[51] + x[102]
   + x[63] + x[73] + x[103] + x[36] <= 19
 nod59: x[75] + x[65] + x[11] + 10 x[59] + x[73] + x[100] + x[107] + x[98]
   + x[122] + x[39] + x[49] <= 10
 nod112: x[75] + x[16] + x[89] + x[85] + x[28] + x[38] + x[70] + x[78]
   + x[105] + x[81] + x[40] + x[11] + 15 x[112] + x[101] + x[62] + x[45]
   <= 15
 nod43: x[12] + x[37] + x[65] + x[93] + x[70] + x[125] + x[113] + x[121]
   + x[71] + 13 x[43] + x[92] + x[73] + x[119] + x[17] <= 13
 nod92: x[12] + x[87] + x[66] + x[120] + x[80] + x[97] + x[88] + x[43]
   + 10 x[92] + x[60] + x[52] <= 10
 nod102: x[12] + x[13] + x[120] + x[23] + x[110] + x[51] + 15 x[102]
   + x[63] + x[21] + x[17] + x[50] + x[18] + x[52] + x[41] + x[99] + x[123]
   <= 15
 nod63: x[42] + x[95] + x[55] + x[90] + x[115] + x[25] + x[77] + x[74]
   + x[14] + x[32] + x[88] + x[51] + x[102] + 15 x[63] + x[79] + x[101]
   <= 15
 nod73: x[95] + x[108] + x[90] + x[31] + x[117] + x[68] + x[93] + x[14]
   + x[86] + x[40] + x[29] + x[51] + x[59] + x[43] + 19 x[73] + x[79]
   + x[96] + x[82] + x[36] + x[122] <= 19
 nod79: x[108] + x[118] + x[15] + x[75] + x[35] + x[28] + x[26] + x[63]
   + x[73] + 12 x[79] + x[50] + x[61] + x[36] <= 12
 nod96: x[87] + x[109] + x[15] + x[89] + x[94] + x[115] + x[28] + x[73]
   + 11 x[96] + x[119] + x[101] + x[100] <= 11
 nod119: x[95] + x[15] + x[55] + x[115] + x[117] + x[76] + x[78] + x[44]
   + x[54] + x[43] + x[96] + 11 x[119] <= 11
 nod21: x[66] + x[16] + x[57] + x[25] + x[85] + x[27] + x[38] + x[78]
   + x[30] + x[86] + x[110] + x[71] + x[102] + 15 x[21] + x[62] + x[24]
   <= 15
 nod72: x[75] + x[16] + x[65] + x[76] + x[28] + x[26] + 12 x[72] + x[101]
   + x[103] + x[17] + x[52] + x[122] + x[123] <= 12
 nod101: x[16] + x[104] + x[112] + x[63] + x[96] + x[72] + 7 x[101] + x[50]
   <= 7
 nod103: x[37] + x[87] + x[106] + x[109] + x[75] + x[16] + x[57] + x[83]
   + x[48] + x[69] + x[105] + x[71] + x[51] + x[72] + 16 x[103] + x[36]
   + x[47] <= 16
 nod17: x[42] + x[56] + x[83] + x[68] + x[33] + x[97] + x[30] + x[64]
   + x[88] + x[116] + x[43] + x[102] + x[72] + 16 x[17] + x[50] + x[60]
   + x[111] <= 16
 nod50: x[89] + x[76] + x[93] + x[23] + x[27] + x[30] + x[58] + x[46]
   + x[88] + x[102] + x[79] + x[101] + x[17] + 16 x[50] + x[107] + x[82]
   + x[36] <= 16
 nod60: x[92] + x[17] + 5 x[60] + x[19] + x[98] + x[36] <= 5
 nod111: x[31] + x[65] + x[17] + 6 x[111] + x[24] + x[41] + x[45] <= 6
 nod18: x[57] + x[65] + x[27] + x[104] + x[30] + x[113] + x[102] + 9 x[18]
   + x[52] + x[62] <= 9
 nod52: x[48] + x[97] + x[26] + x[46] + x[116] + x[71] + x[92] + x[102]
   + x[72] + x[18] + 11 x[52] + x[61] <= 11
 nod62: x[34] + x[117] + x[68] + x[93] + x[27] + x[97] + x[32] + x[88]
   + x[112] + x[21] + x[18] + 13 x[62] + x[24] + x[47] <= 13
 nod19: x[106] + x[20] + x[83] + x[113] + x[124] + x[60] + 7 x[19] + x[61]
   <= 7
 nod61: x[42] + x[95] + x[66] + x[120] + x[22] + x[35] + x[80] + x[83]
   + x[116] + x[79] + x[52] + x[19] + 14 x[61] + x[36] + x[47] <= 14
 nod91: x[53] + x[20] + x[90] + x[120] + x[22] + x[83] + x[33] + x[113]
   + x[54] + 12 x[91] + x[24] + x[36] + x[123] <= 12
 nod100: x[118] + x[20] + x[55] + x[66] + x[83] + x[69] + x[77] + x[23]
   + x[125] + x[64] + x[71] + x[59] + x[96] + 16 x[100] + x[36] + x[49]
   + x[47] <= 16
 nod107: x[42] + x[67] + x[118] + x[20] + x[77] + x[23] + x[33] + x[84]
   + x[70] + x[58] + x[124] + x[59] + x[50] + 13 x[107] <= 13
 nod24: x[120] + x[83] + x[97] + x[78] + x[114] + x[21] + x[111] + x[62]
   + x[91] + 9 x[24] <= 9
 nod41: x[37] + x[108] + x[55] + x[23] + x[70] + x[125] + x[116] + x[124]
   + x[102] + x[111] + 11 x[41] + x[49] <= 11
 nod98: x[37] + x[95] + x[38] + x[58] + x[26] + x[59] + x[60] + 8 x[98]
   + x[123] <= 8
 nod82: x[42] + x[89] + x[94] + x[97] + x[32] + x[73] + x[50] + 10 x[82]
   + x[99] + x[39] + x[47] <= 10
 nod36: x[56] + x[109] + x[75] + x[90] + x[85] + x[33] + x[97] + x[78]
   + x[105] + x[81] + x[88] + x[71] + x[51] + x[73] + x[79] + x[103]
   + x[50] + x[60] + x[61] + x[91] + x[100] + 22 x[36] + x[122] <= 22
 nod122: x[42] + x[53] + x[95] + x[106] + x[90] + x[84] + x[105] + x[58]
   + x[59] + x[73] + x[72] + x[36] + 13 x[122] + x[39] <= 13
 nod99: x[95] + x[109] + x[38] + x[46] + x[102] + x[82] + 7 x[99] + x[47]
   <= 7
 nod39: x[56] + x[106] + x[117] + x[76] + x[77] + x[84] + x[59] + x[82]
   + x[122] + 9 x[39] <= 9
 nod49: x[87] + x[109] + x[57] + x[69] + x[105] + x[59] + x[100] + x[41]
   + 8 x[49] <= 8
 nod123: x[42] + x[66] + x[94] + x[86] + x[113] + x[116] + x[102] + x[72]
   + x[91] + x[98] + 10 x[123] <= 10
 nod45: x[94] + x[76] + x[93] + x[81] + x[112] + x[111] + 6 x[45] <= 6
 nod47: x[83] + x[84] + x[46] + x[103] + x[62] + x[61] + x[100] + x[82]
   + x[99] + 9 x[47] <= 9
Bounds
Binaries
 x[1] x[12] x[37] x[42] x[53] x[56] x[67] x[87] x[95] x[106] x[108] x[109]
 x[118] x[2] x[3] x[13] x[15] x[20] x[55] x[66] x[75] x[90] x[120] x[16]
 x[22] x[31] x[34] x[35] x[57] x[65] x[80] x[83] x[89] x[94] x[115] x[117]
 x[4] x[25] x[48] x[68] x[69] x[76] x[77] x[85] x[93] x[5] x[23] x[27]
 x[28] x[33] x[38] x[74] x[84] x[97] x[6] x[14] x[70] x[78] x[104] x[105]
 x[114] x[125] x[7] x[30] x[58] x[81] x[86] x[8] x[40] x[44] x[110] x[113]
 x[121] x[9] x[26] x[32] x[46] x[64] x[88] x[116] x[124] x[10] x[29] x[54]
 x[71] x[11] x[51] x[59] x[112] x[43] x[92] x[102] x[63] x[73] x[79] x[96]
 x[119] x[21] x[72] x[101] x[103] x[17] x[50] x[60] x[111] x[18] x[52]
 x[62] x[19] x[61] x[91] x[100] x[107] x[24] x[41] x[98] x[82] x[36] x[122]
 x[99] x[39] x[49] x[123] x[45] x[47]
End
